602 10
3 3 3 3 3 3 3 3 3 3
0  0 0 0 0 0 0 0 0 0 0  60 2 12 22 32 42 52 62 72 82 92 102 112 122 132 142 152 162 172 182 192 202 212 222 232 242 252 262 272 282 292 302 312 322 332 342 352 362 372 382 392 402 412 422 432 442 452 462 472 482 492 502 512 522 532 542 552 562 572 582 592
60  0 0 0 1 0 0 0 0 0 0  1 3
48  0 0 0 0 1 0 0 0 0 0  1 4
95  0 0 0 0 0 1 0 0 0 0  1 5
87  1 0 0 0 0 0 0 0 0 0  1 6
72  0 1 0 0 0 0 0 0 0 0  1 7
5  0 0 0 0 0 0 0 0 0 1  1 8
35  0 0 0 0 0 0 0 0 1 0  1 9
39  0 0 0 0 0 0 0 1 0 0  1 10
54  0 0 0 0 0 0 1 0 0 0  1 11
66  0 0 1 0 0 0 0 0 0 0  1 602
37  0 0 0 0 0 0 0 1 0 0  1 13
34  0 0 0 0 0 0 1 0 0 0  1 14
97  1 0 0 0 0 0 0 0 0 0  1 15
55  0 0 0 0 0 1 0 0 0 0  1 16
21  0 0 1 0 0 0 0 0 0 0  1 17
20  0 0 0 1 0 0 0 0 0 0  1 18
59  0 0 0 0 1 0 0 0 0 0  1 19
46  0 0 0 0 0 0 0 0 0 1  1 20
19  0 0 0 0 0 0 0 0 1 0  1 21
46  0 1 0 0 0 0 0 0 0 0  1 602
45  0 0 0 0 1 0 0 0 0 0  1 23
73  0 0 1 0 0 0 0 0 0 0  1 24
24  0 1 0 0 0 0 0 0 0 0  1 25
28  0 0 0 0 0 0 0 0 1 0  1 26
28  1 0 0 0 0 0 0 0 0 0  1 27
25  0 0 0 1 0 0 0 0 0 0  1 28
23  0 0 0 0 0 1 0 0 0 0  1 29
83  0 0 0 0 0 0 0 1 0 0  1 30
5  0 0 0 0 0 0 0 0 0 1  1 31
78  0 0 0 0 0 0 1 0 0 0  1 602
53  1 0 0 0 0 0 0 0 0 0  1 33
12  0 0 1 0 0 0 0 0 0 0  1 34
12  0 0 0 0 0 0 0 0 0 1  1 35
37  0 1 0 0 0 0 0 0 0 0  1 36
33  0 0 0 0 0 0 0 0 1 0  1 37
71  0 0 0 1 0 0 0 0 0 0  1 38
55  0 0 0 0 0 0 1 0 0 0  1 39
29  0 0 0 0 0 1 0 0 0 0  1 40
87  0 0 0 0 0 0 0 1 0 0  1 41
38  0 0 0 0 1 0 0 0 0 0  1 602
90  0 0 0 0 1 0 0 0 0 0  1 43
49  0 0 1 0 0 0 0 0 0 0  1 44
27  0 0 0 0 0 0 0 0 0 1  1 45
65  0 0 0 0 0 0 0 1 0 0  1 46
7  0 0 0 0 0 1 0 0 0 0  1 47
23  0 0 0 0 0 0 1 0 0 0  1 48
48  1 0 0 0 0 0 0 0 0 0  1 49
83  0 0 0 1 0 0 0 0 0 0  1 50
17  0 0 0 0 0 0 0 0 1 0  1 51
40  0 1 0 0 0 0 0 0 0 0  1 602
85  0 0 0 1 0 0 0 0 0 0  1 53
25  0 0 0 0 1 0 0 0 0 0  1 54
84  0 0 1 0 0 0 0 0 0 0  1 55
64  0 0 0 0 0 0 1 0 0 0  1 56
13  0 0 0 0 0 0 0 0 0 1  1 57
66  0 1 0 0 0 0 0 0 0 0  1 58
46  0 0 0 0 0 0 0 1 0 0  1 59
59  0 0 0 0 0 0 0 0 1 0  1 60
62  1 0 0 0 0 0 0 0 0 0  1 61
19  0 0 0 0 0 1 0 0 0 0  1 602
88  0 0 0 0 0 1 0 0 0 0  1 63
67  0 0 0 0 0 0 1 0 0 0  1 64
14  0 0 0 0 1 0 0 0 0 0  1 65
41  1 0 0 0 0 0 0 0 0 0  1 66
73  0 1 0 0 0 0 0 0 0 0  1 67
57  0 0 0 0 0 0 0 1 0 0  1 68
53  0 0 1 0 0 0 0 0 0 0  1 69
80  0 0 0 1 0 0 0 0 0 0  1 70
47  0 0 0 0 0 0 0 0 0 1  1 71
74  0 0 0 0 0 0 0 0 1 0  1 602
78  0 1 0 0 0 0 0 0 0 0  1 73
64  0 0 0 0 0 1 0 0 0 0  1 74
63  0 0 0 0 1 0 0 0 0 0  1 75
46  0 0 0 0 0 0 1 0 0 0  1 76
84  0 0 0 1 0 0 0 0 0 0  1 77
84  1 0 0 0 0 0 0 0 0 0  1 78
28  0 0 0 0 0 0 0 0 1 0  1 79
52  0 0 0 0 0 0 0 0 0 1  1 80
26  0 0 0 0 0 0 0 1 0 0  1 81
41  0 0 1 0 0 0 0 0 0 0  1 602
11  0 1 0 0 0 0 0 0 0 0  1 83
64  1 0 0 0 0 0 0 0 0 0  1 84
97  0 0 0 0 0 0 1 0 0 0  1 85
38  0 0 0 0 0 0 0 0 0 1  1 86
17  0 0 1 0 0 0 0 0 0 0  1 87
85  0 0 0 0 1 0 0 0 0 0  1 88
73  0 0 0 0 0 1 0 0 0 0  1 89
10  0 0 0 1 0 0 0 0 0 0  1 90
95  0 0 0 0 0 0 0 0 1 0  1 91
67  0 0 0 0 0 0 0 1 0 0  1 602
93  0 0 0 1 0 0 0 0 0 0  1 93
95  0 0 1 0 0 0 0 0 0 0  1 94
43  0 0 0 0 0 0 0 1 0 0  1 95
65  0 1 0 0 0 0 0 0 0 0  1 96
32  0 0 0 0 0 0 0 0 1 0  1 97
59  1 0 0 0 0 0 0 0 0 0  1 98
85  0 0 0 0 0 0 1 0 0 0  1 99
46  0 0 0 0 0 1 0 0 0 0  1 100
85  0 0 0 0 0 0 0 0 0 1  1 101
60  0 0 0 0 1 0 0 0 0 0  1 602
61  0 0 1 0 0 0 0 0 0 0  1 103
41  0 0 0 1 0 0 0 0 0 0  1 104
49  0 0 0 0 0 1 0 0 0 0  1 105
23  0 0 0 0 1 0 0 0 0 0  1 106
66  1 0 0 0 0 0 0 0 0 0  1 107
49  0 0 0 0 0 0 0 1 0 0  1 108
70  0 0 0 0 0 0 0 0 1 0  1 109
99  0 0 0 0 0 0 0 0 0 1  1 110
90  0 1 0 0 0 0 0 0 0 0  1 111
17  0 0 0 0 0 0 1 0 0 0  1 602
13  0 0 0 0 1 0 0 0 0 0  1 113
7  0 0 0 0 0 0 0 1 0 0  1 114
98  0 1 0 0 0 0 0 0 0 0  1 115
57  0 0 0 0 0 0 0 0 1 0  1 116
73  1 0 0 0 0 0 0 0 0 0  1 117
73  0 0 0 1 0 0 0 0 0 0  1 118
68  0 0 1 0 0 0 0 0 0 0  1 119
40  0 0 0 0 0 1 0 0 0 0  1 120
98  0 0 0 0 0 0 0 0 0 1  1 121
9  0 0 0 0 0 0 1 0 0 0  1 602
86  0 0 0 0 0 0 0 0 0 1  1 123
76  0 0 0 0 0 0 1 0 0 0  1 124
14  0 0 0 0 1 0 0 0 0 0  1 125
41  0 0 0 1 0 0 0 0 0 0  1 126
85  0 1 0 0 0 0 0 0 0 0  1 127
37  1 0 0 0 0 0 0 0 0 0  1 128
19  0 0 0 0 0 0 0 0 1 0  1 129
17  0 0 1 0 0 0 0 0 0 0  1 130
54  0 0 0 0 0 0 0 1 0 0  1 131
79  0 0 0 0 0 1 0 0 0 0  1 602
40  0 1 0 0 0 0 0 0 0 0  1 133
53  0 0 1 0 0 0 0 0 0 0  1 134
97  0 0 0 0 0 0 0 1 0 0  1 135
87  0 0 0 0 0 1 0 0 0 0  1 136
96  0 0 0 0 0 0 0 0 1 0  1 137
84  0 0 0 0 1 0 0 0 0 0  1 138
16  0 0 0 1 0 0 0 0 0 0  1 139
66  0 0 0 0 0 0 1 0 0 0  1 140
52  0 0 0 0 0 0 0 0 0 1  1 141
95  1 0 0 0 0 0 0 0 0 0  1 602
33  0 0 0 0 0 0 1 0 0 0  1 143
33  0 1 0 0 0 0 0 0 0 0  1 144
87  0 0 0 1 0 0 0 0 0 0  1 145
18  1 0 0 0 0 0 0 0 0 0  1 146
55  0 0 1 0 0 0 0 0 0 0  1 147
13  0 0 0 0 0 0 0 0 1 0  1 148
77  0 0 0 0 1 0 0 0 0 0  1 149
60  0 0 0 0 0 0 0 1 0 0  1 150
42  0 0 0 0 0 0 0 0 0 1  1 151
74  0 0 0 0 0 1 0 0 0 0  1 602
92  0 0 0 0 0 0 0 1 0 0  1 153
91  0 0 0 0 0 1 0 0 0 0  1 154
79  0 0 0 0 0 0 0 0 1 0  1 155
54  0 0 1 0 0 0 0 0 0 0  1 156
69  0 0 0 0 1 0 0 0 0 0  1 157
79  0 0 0 0 0 0 1 0 0 0  1 158
33  0 0 0 1 0 0 0 0 0 0  1 159
61  0 1 0 0 0 0 0 0 0 0  1 160
39  0 0 0 0 0 0 0 0 0 1  1 161
16  1 0 0 0 0 0 0 0 0 0  1 602
82  0 0 0 0 0 0 1 0 0 0  1 163
41  0 1 0 0 0 0 0 0 0 0  1 164
28  0 0 0 0 1 0 0 0 0 0  1 165
64  0 0 0 0 0 1 0 0 0 0  1 166
78  0 0 1 0 0 0 0 0 0 0  1 167
76  0 0 0 1 0 0 0 0 0 0  1 168
6  0 0 0 0 0 0 0 1 0 0  1 169
49  0 0 0 0 0 0 0 0 1 0  1 170
47  0 0 0 0 0 0 0 0 0 1  1 171
58  1 0 0 0 0 0 0 0 0 0  1 602
52  1 0 0 0 0 0 0 0 0 0  1 173
42  0 0 0 0 0 1 0 0 0 0  1 174
24  0 0 0 0 0 0 0 0 1 0  1 175
91  0 0 0 0 0 0 0 0 0 1  1 176
47  0 0 0 1 0 0 0 0 0 0  1 177
88  0 0 0 0 0 0 1 0 0 0  1 178
91  0 0 0 0 1 0 0 0 0 0  1 179
52  0 0 0 0 0 0 0 1 0 0  1 180
28  0 0 1 0 0 0 0 0 0 0  1 181
35  0 1 0 0 0 0 0 0 0 0  1 602
82  0 0 0 0 0 1 0 0 0 0  1 183
76  0 0 1 0 0 0 0 0 0 0  1 184
86  0 0 0 1 0 0 0 0 0 0  1 185
93  0 0 0 0 0 0 1 0 0 0  1 186
84  0 0 0 0 1 0 0 0 0 0  1 187
38  0 0 0 0 0 0 0 1 0 0  1 188
95  0 0 0 0 0 0 0 0 1 0  1 189
37  0 0 0 0 0 0 0 0 0 1  1 190
21  0 1 0 0 0 0 0 0 0 0  1 191
23  1 0 0 0 0 0 0 0 0 0  1 602
77  0 0 0 0 0 0 0 0 0 1  1 193
8  0 0 0 0 1 0 0 0 0 0  1 194
42  0 0 0 0 0 0 1 0 0 0  1 195
64  0 0 0 0 0 0 0 1 0 0  1 196
70  1 0 0 0 0 0 0 0 0 0  1 197
45  0 0 1 0 0 0 0 0 0 0  1 198
45  0 0 0 0 0 0 0 0 1 0  1 199
28  0 0 0 0 0 1 0 0 0 0  1 200
67  0 0 0 1 0 0 0 0 0 0  1 201
86  0 1 0 0 0 0 0 0 0 0  1 602
60  0 0 0 1 0 0 0 0 0 0  1 203
48  0 0 0 0 1 0 0 0 0 0  1 204
95  0 0 0 0 0 1 0 0 0 0  1 205
87  1 0 0 0 0 0 0 0 0 0  1 206
72  0 1 0 0 0 0 0 0 0 0  1 207
5  0 0 0 0 0 0 0 0 0 1  1 208
35  0 0 0 0 0 0 0 0 1 0  1 209
39  0 0 0 0 0 0 0 1 0 0  1 210
54  0 0 0 0 0 0 1 0 0 0  1 211
66  0 0 1 0 0 0 0 0 0 0  1 602
37  0 0 0 0 0 0 0 1 0 0  1 213
34  0 0 0 0 0 0 1 0 0 0  1 214
97  1 0 0 0 0 0 0 0 0 0  1 215
55  0 0 0 0 0 1 0 0 0 0  1 216
21  0 0 1 0 0 0 0 0 0 0  1 217
20  0 0 0 1 0 0 0 0 0 0  1 218
59  0 0 0 0 1 0 0 0 0 0  1 219
46  0 0 0 0 0 0 0 0 0 1  1 220
19  0 0 0 0 0 0 0 0 1 0  1 221
46  0 1 0 0 0 0 0 0 0 0  1 602
45  0 0 0 0 1 0 0 0 0 0  1 223
73  0 0 1 0 0 0 0 0 0 0  1 224
24  0 1 0 0 0 0 0 0 0 0  1 225
28  0 0 0 0 0 0 0 0 1 0  1 226
28  1 0 0 0 0 0 0 0 0 0  1 227
25  0 0 0 1 0 0 0 0 0 0  1 228
23  0 0 0 0 0 1 0 0 0 0  1 229
83  0 0 0 0 0 0 0 1 0 0  1 230
5  0 0 0 0 0 0 0 0 0 1  1 231
78  0 0 0 0 0 0 1 0 0 0  1 602
53  1 0 0 0 0 0 0 0 0 0  1 233
12  0 0 1 0 0 0 0 0 0 0  1 234
12  0 0 0 0 0 0 0 0 0 1  1 235
37  0 1 0 0 0 0 0 0 0 0  1 236
33  0 0 0 0 0 0 0 0 1 0  1 237
71  0 0 0 1 0 0 0 0 0 0  1 238
55  0 0 0 0 0 0 1 0 0 0  1 239
29  0 0 0 0 0 1 0 0 0 0  1 240
87  0 0 0 0 0 0 0 1 0 0  1 241
38  0 0 0 0 1 0 0 0 0 0  1 602
90  0 0 0 0 1 0 0 0 0 0  1 243
49  0 0 1 0 0 0 0 0 0 0  1 244
27  0 0 0 0 0 0 0 0 0 1  1 245
65  0 0 0 0 0 0 0 1 0 0  1 246
7  0 0 0 0 0 1 0 0 0 0  1 247
23  0 0 0 0 0 0 1 0 0 0  1 248
48  1 0 0 0 0 0 0 0 0 0  1 249
83  0 0 0 1 0 0 0 0 0 0  1 250
17  0 0 0 0 0 0 0 0 1 0  1 251
40  0 1 0 0 0 0 0 0 0 0  1 602
85  0 0 0 1 0 0 0 0 0 0  1 253
25  0 0 0 0 1 0 0 0 0 0  1 254
84  0 0 1 0 0 0 0 0 0 0  1 255
64  0 0 0 0 0 0 1 0 0 0  1 256
13  0 0 0 0 0 0 0 0 0 1  1 257
66  0 1 0 0 0 0 0 0 0 0  1 258
46  0 0 0 0 0 0 0 1 0 0  1 259
59  0 0 0 0 0 0 0 0 1 0  1 260
62  1 0 0 0 0 0 0 0 0 0  1 261
19  0 0 0 0 0 1 0 0 0 0  1 602
88  0 0 0 0 0 1 0 0 0 0  1 263
67  0 0 0 0 0 0 1 0 0 0  1 264
14  0 0 0 0 1 0 0 0 0 0  1 265
41  1 0 0 0 0 0 0 0 0 0  1 266
73  0 1 0 0 0 0 0 0 0 0  1 267
57  0 0 0 0 0 0 0 1 0 0  1 268
53  0 0 1 0 0 0 0 0 0 0  1 269
80  0 0 0 1 0 0 0 0 0 0  1 270
47  0 0 0 0 0 0 0 0 0 1  1 271
74  0 0 0 0 0 0 0 0 1 0  1 602
78  0 1 0 0 0 0 0 0 0 0  1 273
64  0 0 0 0 0 1 0 0 0 0  1 274
63  0 0 0 0 1 0 0 0 0 0  1 275
46  0 0 0 0 0 0 1 0 0 0  1 276
84  0 0 0 1 0 0 0 0 0 0  1 277
84  1 0 0 0 0 0 0 0 0 0  1 278
28  0 0 0 0 0 0 0 0 1 0  1 279
52  0 0 0 0 0 0 0 0 0 1  1 280
26  0 0 0 0 0 0 0 1 0 0  1 281
41  0 0 1 0 0 0 0 0 0 0  1 602
11  0 1 0 0 0 0 0 0 0 0  1 283
64  1 0 0 0 0 0 0 0 0 0  1 284
97  0 0 0 0 0 0 1 0 0 0  1 285
38  0 0 0 0 0 0 0 0 0 1  1 286
17  0 0 1 0 0 0 0 0 0 0  1 287
85  0 0 0 0 1 0 0 0 0 0  1 288
73  0 0 0 0 0 1 0 0 0 0  1 289
10  0 0 0 1 0 0 0 0 0 0  1 290
95  0 0 0 0 0 0 0 0 1 0  1 291
67  0 0 0 0 0 0 0 1 0 0  1 602
93  0 0 0 1 0 0 0 0 0 0  1 293
95  0 0 1 0 0 0 0 0 0 0  1 294
43  0 0 0 0 0 0 0 1 0 0  1 295
65  0 1 0 0 0 0 0 0 0 0  1 296
32  0 0 0 0 0 0 0 0 1 0  1 297
59  1 0 0 0 0 0 0 0 0 0  1 298
85  0 0 0 0 0 0 1 0 0 0  1 299
46  0 0 0 0 0 1 0 0 0 0  1 300
85  0 0 0 0 0 0 0 0 0 1  1 301
60  0 0 0 0 1 0 0 0 0 0  1 602
61  0 0 1 0 0 0 0 0 0 0  1 303
41  0 0 0 1 0 0 0 0 0 0  1 304
49  0 0 0 0 0 1 0 0 0 0  1 305
23  0 0 0 0 1 0 0 0 0 0  1 306
66  1 0 0 0 0 0 0 0 0 0  1 307
49  0 0 0 0 0 0 0 1 0 0  1 308
70  0 0 0 0 0 0 0 0 1 0  1 309
99  0 0 0 0 0 0 0 0 0 1  1 310
90  0 1 0 0 0 0 0 0 0 0  1 311
17  0 0 0 0 0 0 1 0 0 0  1 602
13  0 0 0 0 1 0 0 0 0 0  1 313
7  0 0 0 0 0 0 0 1 0 0  1 314
98  0 1 0 0 0 0 0 0 0 0  1 315
57  0 0 0 0 0 0 0 0 1 0  1 316
73  1 0 0 0 0 0 0 0 0 0  1 317
73  0 0 0 1 0 0 0 0 0 0  1 318
68  0 0 1 0 0 0 0 0 0 0  1 319
40  0 0 0 0 0 1 0 0 0 0  1 320
98  0 0 0 0 0 0 0 0 0 1  1 321
9  0 0 0 0 0 0 1 0 0 0  1 602
86  0 0 0 0 0 0 0 0 0 1  1 323
76  0 0 0 0 0 0 1 0 0 0  1 324
14  0 0 0 0 1 0 0 0 0 0  1 325
41  0 0 0 1 0 0 0 0 0 0  1 326
85  0 1 0 0 0 0 0 0 0 0  1 327
37  1 0 0 0 0 0 0 0 0 0  1 328
19  0 0 0 0 0 0 0 0 1 0  1 329
17  0 0 1 0 0 0 0 0 0 0  1 330
54  0 0 0 0 0 0 0 1 0 0  1 331
79  0 0 0 0 0 1 0 0 0 0  1 602
40  0 1 0 0 0 0 0 0 0 0  1 333
53  0 0 1 0 0 0 0 0 0 0  1 334
97  0 0 0 0 0 0 0 1 0 0  1 335
87  0 0 0 0 0 1 0 0 0 0  1 336
96  0 0 0 0 0 0 0 0 1 0  1 337
84  0 0 0 0 1 0 0 0 0 0  1 338
16  0 0 0 1 0 0 0 0 0 0  1 339
66  0 0 0 0 0 0 1 0 0 0  1 340
52  0 0 0 0 0 0 0 0 0 1  1 341
95  1 0 0 0 0 0 0 0 0 0  1 602
33  0 0 0 0 0 0 1 0 0 0  1 343
33  0 1 0 0 0 0 0 0 0 0  1 344
87  0 0 0 1 0 0 0 0 0 0  1 345
18  1 0 0 0 0 0 0 0 0 0  1 346
55  0 0 1 0 0 0 0 0 0 0  1 347
13  0 0 0 0 0 0 0 0 1 0  1 348
77  0 0 0 0 1 0 0 0 0 0  1 349
60  0 0 0 0 0 0 0 1 0 0  1 350
42  0 0 0 0 0 0 0 0 0 1  1 351
74  0 0 0 0 0 1 0 0 0 0  1 602
92  0 0 0 0 0 0 0 1 0 0  1 353
91  0 0 0 0 0 1 0 0 0 0  1 354
79  0 0 0 0 0 0 0 0 1 0  1 355
54  0 0 1 0 0 0 0 0 0 0  1 356
69  0 0 0 0 1 0 0 0 0 0  1 357
79  0 0 0 0 0 0 1 0 0 0  1 358
33  0 0 0 1 0 0 0 0 0 0  1 359
61  0 1 0 0 0 0 0 0 0 0  1 360
39  0 0 0 0 0 0 0 0 0 1  1 361
16  1 0 0 0 0 0 0 0 0 0  1 602
82  0 0 0 0 0 0 1 0 0 0  1 363
41  0 1 0 0 0 0 0 0 0 0  1 364
28  0 0 0 0 1 0 0 0 0 0  1 365
64  0 0 0 0 0 1 0 0 0 0  1 366
78  0 0 1 0 0 0 0 0 0 0  1 367
76  0 0 0 1 0 0 0 0 0 0  1 368
6  0 0 0 0 0 0 0 1 0 0  1 369
49  0 0 0 0 0 0 0 0 1 0  1 370
47  0 0 0 0 0 0 0 0 0 1  1 371
58  1 0 0 0 0 0 0 0 0 0  1 602
52  1 0 0 0 0 0 0 0 0 0  1 373
42  0 0 0 0 0 1 0 0 0 0  1 374
24  0 0 0 0 0 0 0 0 1 0  1 375
91  0 0 0 0 0 0 0 0 0 1  1 376
47  0 0 0 1 0 0 0 0 0 0  1 377
88  0 0 0 0 0 0 1 0 0 0  1 378
91  0 0 0 0 1 0 0 0 0 0  1 379
52  0 0 0 0 0 0 0 1 0 0  1 380
28  0 0 1 0 0 0 0 0 0 0  1 381
35  0 1 0 0 0 0 0 0 0 0  1 602
82  0 0 0 0 0 1 0 0 0 0  1 383
76  0 0 1 0 0 0 0 0 0 0  1 384
86  0 0 0 1 0 0 0 0 0 0  1 385
93  0 0 0 0 0 0 1 0 0 0  1 386
84  0 0 0 0 1 0 0 0 0 0  1 387
38  0 0 0 0 0 0 0 1 0 0  1 388
95  0 0 0 0 0 0 0 0 1 0  1 389
37  0 0 0 0 0 0 0 0 0 1  1 390
21  0 1 0 0 0 0 0 0 0 0  1 391
23  1 0 0 0 0 0 0 0 0 0  1 602
77  0 0 0 0 0 0 0 0 0 1  1 393
8  0 0 0 0 1 0 0 0 0 0  1 394
42  0 0 0 0 0 0 1 0 0 0  1 395
64  0 0 0 0 0 0 0 1 0 0  1 396
70  1 0 0 0 0 0 0 0 0 0  1 397
45  0 0 1 0 0 0 0 0 0 0  1 398
45  0 0 0 0 0 0 0 0 1 0  1 399
28  0 0 0 0 0 1 0 0 0 0  1 400
67  0 0 0 1 0 0 0 0 0 0  1 401
86  0 1 0 0 0 0 0 0 0 0  1 602
60  0 0 0 1 0 0 0 0 0 0  1 403
48  0 0 0 0 1 0 0 0 0 0  1 404
95  0 0 0 0 0 1 0 0 0 0  1 405
87  1 0 0 0 0 0 0 0 0 0  1 406
72  0 1 0 0 0 0 0 0 0 0  1 407
5  0 0 0 0 0 0 0 0 0 1  1 408
35  0 0 0 0 0 0 0 0 1 0  1 409
39  0 0 0 0 0 0 0 1 0 0  1 410
54  0 0 0 0 0 0 1 0 0 0  1 411
66  0 0 1 0 0 0 0 0 0 0  1 602
37  0 0 0 0 0 0 0 1 0 0  1 413
34  0 0 0 0 0 0 1 0 0 0  1 414
97  1 0 0 0 0 0 0 0 0 0  1 415
55  0 0 0 0 0 1 0 0 0 0  1 416
21  0 0 1 0 0 0 0 0 0 0  1 417
20  0 0 0 1 0 0 0 0 0 0  1 418
59  0 0 0 0 1 0 0 0 0 0  1 419
46  0 0 0 0 0 0 0 0 0 1  1 420
19  0 0 0 0 0 0 0 0 1 0  1 421
46  0 1 0 0 0 0 0 0 0 0  1 602
45  0 0 0 0 1 0 0 0 0 0  1 423
73  0 0 1 0 0 0 0 0 0 0  1 424
24  0 1 0 0 0 0 0 0 0 0  1 425
28  0 0 0 0 0 0 0 0 1 0  1 426
28  1 0 0 0 0 0 0 0 0 0  1 427
25  0 0 0 1 0 0 0 0 0 0  1 428
23  0 0 0 0 0 1 0 0 0 0  1 429
83  0 0 0 0 0 0 0 1 0 0  1 430
5  0 0 0 0 0 0 0 0 0 1  1 431
78  0 0 0 0 0 0 1 0 0 0  1 602
53  1 0 0 0 0 0 0 0 0 0  1 433
12  0 0 1 0 0 0 0 0 0 0  1 434
12  0 0 0 0 0 0 0 0 0 1  1 435
37  0 1 0 0 0 0 0 0 0 0  1 436
33  0 0 0 0 0 0 0 0 1 0  1 437
71  0 0 0 1 0 0 0 0 0 0  1 438
55  0 0 0 0 0 0 1 0 0 0  1 439
29  0 0 0 0 0 1 0 0 0 0  1 440
87  0 0 0 0 0 0 0 1 0 0  1 441
38  0 0 0 0 1 0 0 0 0 0  1 602
90  0 0 0 0 1 0 0 0 0 0  1 443
49  0 0 1 0 0 0 0 0 0 0  1 444
27  0 0 0 0 0 0 0 0 0 1  1 445
65  0 0 0 0 0 0 0 1 0 0  1 446
7  0 0 0 0 0 1 0 0 0 0  1 447
23  0 0 0 0 0 0 1 0 0 0  1 448
48  1 0 0 0 0 0 0 0 0 0  1 449
83  0 0 0 1 0 0 0 0 0 0  1 450
17  0 0 0 0 0 0 0 0 1 0  1 451
40  0 1 0 0 0 0 0 0 0 0  1 602
85  0 0 0 1 0 0 0 0 0 0  1 453
25  0 0 0 0 1 0 0 0 0 0  1 454
84  0 0 1 0 0 0 0 0 0 0  1 455
64  0 0 0 0 0 0 1 0 0 0  1 456
13  0 0 0 0 0 0 0 0 0 1  1 457
66  0 1 0 0 0 0 0 0 0 0  1 458
46  0 0 0 0 0 0 0 1 0 0  1 459
59  0 0 0 0 0 0 0 0 1 0  1 460
62  1 0 0 0 0 0 0 0 0 0  1 461
19  0 0 0 0 0 1 0 0 0 0  1 602
88  0 0 0 0 0 1 0 0 0 0  1 463
67  0 0 0 0 0 0 1 0 0 0  1 464
14  0 0 0 0 1 0 0 0 0 0  1 465
41  1 0 0 0 0 0 0 0 0 0  1 466
73  0 1 0 0 0 0 0 0 0 0  1 467
57  0 0 0 0 0 0 0 1 0 0  1 468
53  0 0 1 0 0 0 0 0 0 0  1 469
80  0 0 0 1 0 0 0 0 0 0  1 470
47  0 0 0 0 0 0 0 0 0 1  1 471
74  0 0 0 0 0 0 0 0 1 0  1 602
78  0 1 0 0 0 0 0 0 0 0  1 473
64  0 0 0 0 0 1 0 0 0 0  1 474
63  0 0 0 0 1 0 0 0 0 0  1 475
46  0 0 0 0 0 0 1 0 0 0  1 476
84  0 0 0 1 0 0 0 0 0 0  1 477
84  1 0 0 0 0 0 0 0 0 0  1 478
28  0 0 0 0 0 0 0 0 1 0  1 479
52  0 0 0 0 0 0 0 0 0 1  1 480
26  0 0 0 0 0 0 0 1 0 0  1 481
41  0 0 1 0 0 0 0 0 0 0  1 602
11  0 1 0 0 0 0 0 0 0 0  1 483
64  1 0 0 0 0 0 0 0 0 0  1 484
97  0 0 0 0 0 0 1 0 0 0  1 485
38  0 0 0 0 0 0 0 0 0 1  1 486
17  0 0 1 0 0 0 0 0 0 0  1 487
85  0 0 0 0 1 0 0 0 0 0  1 488
73  0 0 0 0 0 1 0 0 0 0  1 489
10  0 0 0 1 0 0 0 0 0 0  1 490
95  0 0 0 0 0 0 0 0 1 0  1 491
67  0 0 0 0 0 0 0 1 0 0  1 602
93  0 0 0 1 0 0 0 0 0 0  1 493
95  0 0 1 0 0 0 0 0 0 0  1 494
43  0 0 0 0 0 0 0 1 0 0  1 495
65  0 1 0 0 0 0 0 0 0 0  1 496
32  0 0 0 0 0 0 0 0 1 0  1 497
59  1 0 0 0 0 0 0 0 0 0  1 498
85  0 0 0 0 0 0 1 0 0 0  1 499
46  0 0 0 0 0 1 0 0 0 0  1 500
85  0 0 0 0 0 0 0 0 0 1  1 501
60  0 0 0 0 1 0 0 0 0 0  1 602
61  0 0 1 0 0 0 0 0 0 0  1 503
41  0 0 0 1 0 0 0 0 0 0  1 504
49  0 0 0 0 0 1 0 0 0 0  1 505
23  0 0 0 0 1 0 0 0 0 0  1 506
66  1 0 0 0 0 0 0 0 0 0  1 507
49  0 0 0 0 0 0 0 1 0 0  1 508
70  0 0 0 0 0 0 0 0 1 0  1 509
99  0 0 0 0 0 0 0 0 0 1  1 510
90  0 1 0 0 0 0 0 0 0 0  1 511
17  0 0 0 0 0 0 1 0 0 0  1 602
13  0 0 0 0 1 0 0 0 0 0  1 513
7  0 0 0 0 0 0 0 1 0 0  1 514
98  0 1 0 0 0 0 0 0 0 0  1 515
57  0 0 0 0 0 0 0 0 1 0  1 516
73  1 0 0 0 0 0 0 0 0 0  1 517
73  0 0 0 1 0 0 0 0 0 0  1 518
68  0 0 1 0 0 0 0 0 0 0  1 519
40  0 0 0 0 0 1 0 0 0 0  1 520
98  0 0 0 0 0 0 0 0 0 1  1 521
9  0 0 0 0 0 0 1 0 0 0  1 602
86  0 0 0 0 0 0 0 0 0 1  1 523
76  0 0 0 0 0 0 1 0 0 0  1 524
14  0 0 0 0 1 0 0 0 0 0  1 525
41  0 0 0 1 0 0 0 0 0 0  1 526
85  0 1 0 0 0 0 0 0 0 0  1 527
37  1 0 0 0 0 0 0 0 0 0  1 528
19  0 0 0 0 0 0 0 0 1 0  1 529
17  0 0 1 0 0 0 0 0 0 0  1 530
54  0 0 0 0 0 0 0 1 0 0  1 531
79  0 0 0 0 0 1 0 0 0 0  1 602
40  0 1 0 0 0 0 0 0 0 0  1 533
53  0 0 1 0 0 0 0 0 0 0  1 534
97  0 0 0 0 0 0 0 1 0 0  1 535
87  0 0 0 0 0 1 0 0 0 0  1 536
96  0 0 0 0 0 0 0 0 1 0  1 537
84  0 0 0 0 1 0 0 0 0 0  1 538
16  0 0 0 1 0 0 0 0 0 0  1 539
66  0 0 0 0 0 0 1 0 0 0  1 540
52  0 0 0 0 0 0 0 0 0 1  1 541
95  1 0 0 0 0 0 0 0 0 0  1 602
33  0 0 0 0 0 0 1 0 0 0  1 543
33  0 1 0 0 0 0 0 0 0 0  1 544
87  0 0 0 1 0 0 0 0 0 0  1 545
18  1 0 0 0 0 0 0 0 0 0  1 546
55  0 0 1 0 0 0 0 0 0 0  1 547
13  0 0 0 0 0 0 0 0 1 0  1 548
77  0 0 0 0 1 0 0 0 0 0  1 549
60  0 0 0 0 0 0 0 1 0 0  1 550
42  0 0 0 0 0 0 0 0 0 1  1 551
74  0 0 0 0 0 1 0 0 0 0  1 602
92  0 0 0 0 0 0 0 1 0 0  1 553
91  0 0 0 0 0 1 0 0 0 0  1 554
79  0 0 0 0 0 0 0 0 1 0  1 555
54  0 0 1 0 0 0 0 0 0 0  1 556
69  0 0 0 0 1 0 0 0 0 0  1 557
79  0 0 0 0 0 0 1 0 0 0  1 558
33  0 0 0 1 0 0 0 0 0 0  1 559
61  0 1 0 0 0 0 0 0 0 0  1 560
39  0 0 0 0 0 0 0 0 0 1  1 561
16  1 0 0 0 0 0 0 0 0 0  1 602
82  0 0 0 0 0 0 1 0 0 0  1 563
41  0 1 0 0 0 0 0 0 0 0  1 564
28  0 0 0 0 1 0 0 0 0 0  1 565
64  0 0 0 0 0 1 0 0 0 0  1 566
78  0 0 1 0 0 0 0 0 0 0  1 567
76  0 0 0 1 0 0 0 0 0 0  1 568
6  0 0 0 0 0 0 0 1 0 0  1 569
49  0 0 0 0 0 0 0 0 1 0  1 570
47  0 0 0 0 0 0 0 0 0 1  1 571
58  1 0 0 0 0 0 0 0 0 0  1 602
52  1 0 0 0 0 0 0 0 0 0  1 573
42  0 0 0 0 0 1 0 0 0 0  1 574
24  0 0 0 0 0 0 0 0 1 0  1 575
91  0 0 0 0 0 0 0 0 0 1  1 576
47  0 0 0 1 0 0 0 0 0 0  1 577
88  0 0 0 0 0 0 1 0 0 0  1 578
91  0 0 0 0 1 0 0 0 0 0  1 579
52  0 0 0 0 0 0 0 1 0 0  1 580
28  0 0 1 0 0 0 0 0 0 0  1 581
35  0 1 0 0 0 0 0 0 0 0  1 602
82  0 0 0 0 0 1 0 0 0 0  1 583
76  0 0 1 0 0 0 0 0 0 0  1 584
86  0 0 0 1 0 0 0 0 0 0  1 585
93  0 0 0 0 0 0 1 0 0 0  1 586
84  0 0 0 0 1 0 0 0 0 0  1 587
38  0 0 0 0 0 0 0 1 0 0  1 588
95  0 0 0 0 0 0 0 0 1 0  1 589
37  0 0 0 0 0 0 0 0 0 1  1 590
21  0 1 0 0 0 0 0 0 0 0  1 591
23  1 0 0 0 0 0 0 0 0 0  1 602
77  0 0 0 0 0 0 0 0 0 1  1 593
8  0 0 0 0 1 0 0 0 0 0  1 594
42  0 0 0 0 0 0 1 0 0 0  1 595
64  0 0 0 0 0 0 0 1 0 0  1 596
70  1 0 0 0 0 0 0 0 0 0  1 597
45  0 0 1 0 0 0 0 0 0 0  1 598
45  0 0 0 0 0 0 0 0 1 0  1 599
28  0 0 0 0 0 1 0 0 0 0  1 600
67  0 0 0 1 0 0 0 0 0 0  1 601
86  0 1 0 0 0 0 0 0 0 0  1 602
0  0 0 0 0 0 0 0 0 0 0  0
